76
125
87	12
86	17
85	13
84	10
83	10
82	13
81	8
80	14
79	5
78	6
77	6
76	10
75	10
74	11
73	6
72	14
71	15
70	8
69	12
68	6
67	9
66	10
65	16
64	17
63	9
62	10
61	10
60	14
59	7
58	5
57	4
56	8
55	9
54	5
53	7
52	5
51	6
50	10
49	9
48	12
47	10
46	11
45	8
44	9
43	12
42	9
41	5
40	7
39	9
38	12
37	11
36	11
35	11
34	10
33	17
32	11
31	7
30	15
29	5
28	9
27	9
26	11
25	10
24	6
23	8
22	13
21	11
20	14
19	7
18	11
17	5
16	12
15	12
14	9
13	10
12	15
